4 
5  11 31 47 
6  02 17 32 47 
7  02 17 32 47 
8  02 17 32 47 
9  02 15 30 45 
10  00 15 30 45 
11  00 15 30 45 
12  00 15 30 45 
13  00 16 31 46 
14  01 17 31 46 
15  01 14 29 44 59 
16  14 29 44 59 
17  14 29 44 59 
18  14 31 46 
19  01 15 30 45 
20  00 
21 
